ciphers.transposition_cipher/3_unsat.smt2
(set-logic ALL)
(declare-const key_VAR Int)
(declare-const message_VAR String)
(assert (not (= key_VAR 0)))
(assert (< 0 (str.len message_VAR)))
(assert (not (> (str.len message_VAR) 0)))
(check-sat)
(get-value (key_VAR))
(get-value (message_VAR))
